NAME : random137.912.tour
COMMENT : Length = 912
COMMENT : Found by LKH [Keld Helsgaun] Mon Dec 30 22:00:27 2024
TYPE : TOUR
DIMENSION : 137
TOUR_SECTION
1
22
78
4
122
8
94
75
103
28
95
89
115
134
96
31
42
53
83
23
69
116
84
24
55
108
19
25
41
101
76
127
106
62
131
60
52
39
49
58
113
36
37
80
111
99
10
129
128
51
48
98
100
109
114
71
65
126
59
63
91
110
117
88
73
119
120
82
6
132
26
86
11
17
7
34
2
27
112
18
70
54
50
13
29
45
133
124
16
136
38
123
64
79
33
68
67
121
107
21
125
14
30
20
85
135
105
3
97
104
130
32
72
15
43
118
61
56
35
66
9
12
87
74
46
102
47
81
57
40
5
93
90
137
92
77
44
-1
EOF
